tsp/input_files/sw.tsp
NAME: sw10
TYPE: TSP
COMMENT: 10-city problem //by Sara Schlosser and Amanda Webster
DIMENSION: 10
EDGE_WEIGHT_TYPE: EUC_2D
NODE_COORD_SECTION
1 17 64
2 176 134
3 49 27
4 82 124
5 109 41
6 61 75
7 36 144
8 93 4
9 162 64
10 133 95
EOF